
Welcome to IBM(R) ILOG(R) CPLEX(R) Interactive Optimizer 12.6.0.0
  with Simplex, Mixed Integer & Barrier Optimizers
5725-A06 5725-A29 5724-Y48 5724-Y49 5724-Y54 5724-Y55 5655-Y21
Copyright IBM Corp. 1988, 2013.  All Rights Reserved.

Type 'help' for a list of available commands.
Type 'help' followed by a command name for more
information on commands.

CPLEX> Problem 'fine_planning_binfix.lp' read.
Read time = 0.01 sec. (0.09 ticks)
CPLEX> Priority order 'fine_planning_binfix.ord' read.
CPLEX> New value for time limit in seconds: 600
CPLEX> Tried aggregator 2 times.
MIP Presolve eliminated 65 rows and 0 columns.
MIP Presolve modified 2775 coefficients.
Aggregator did 43 substitutions.
Reduced MIP has 693 rows, 304 columns, and 3290 nonzeros.
Reduced MIP has 243 binaries, 0 generals, 0 SOSs, and 0 indicators.
Presolve time = 0.01 sec. (5.16 ticks)
Found incumbent of value 1679.860000 after 0.02 sec. (6.24 ticks)
Probing time = 0.00 sec. (0.93 ticks)
Tried aggregator 1 time.
MIP Presolve eliminated 7 rows and 6 columns.
Reduced MIP has 686 rows, 298 columns, and 3270 nonzeros.
Reduced MIP has 237 binaries, 61 generals, 0 SOSs, and 0 indicators.
Presolve time = 0.00 sec. (2.52 ticks)
Probing time = 0.00 sec. (0.88 ticks)
Clique table members: 927.
MIP emphasis: balance optimality and feasibility.
MIP search method: dynamic search.
Parallel mode: deterministic, using up to 8 threads.
Root relaxation solution time = 0.00 sec. (3.98 ticks)

        Nodes                                         Cuts/
   Node  Left     Objective  IInf  Best Integer    Best Bound    ItCnt     Gap

*     0+    0                         1679.8600        0.0000      164  100.00%
      0     0       20.5255   108     1679.8600       20.5255      164   98.78%
      0     0      578.0966   149     1679.8600     Cuts: 271      517   65.59%
      0     0      679.6167   179     1679.8600     Cuts: 271      828   59.54%
      0     0      696.3711   179     1679.8600     Cuts: 215      952   58.55%
      0     0      700.8031   186     1679.8600     Cuts: 150     1066   58.28%
      0     0      703.7891   207     1679.8600     Cuts: 139     1164   58.10%
      0     0      703.7968   209     1679.8600      Cuts: 85     1224   58.10%
*     0+    0                         1653.6900      703.7968     1251   57.44%
      0     0      703.9096   212     1653.6900      Cuts: 56     1251   57.43%
      0     0      710.8628   210     1653.6900      Cuts: 44     1299   57.01%
      0     0      711.0285   214     1653.6900      Cuts: 83     1351   57.00%
      0     0      712.4983   211     1653.6900      Cuts: 81     1399   56.91%
      0     0      712.4983   210     1653.6900      Cuts: 19     1423   56.91%
*     0+    0                         1650.8000      712.4983     1423   56.84%
      0     2      712.4983   188     1650.8000      712.4983     1423   56.84%
Elapsed time = 0.29 sec. (177.31 ticks, tree = 0.01 MB, solutions = 3)
*   239   210      integral     0     1646.7400      751.9004     8869   54.34%
*  1566  1119      integral     0     1645.7500      942.4296    41211   42.74%
*  2700+ 1843                         1645.6400      989.7214    67199   39.86%
*  2711  1848      integral     0     1645.6100      989.7214    67394   39.86%
*  3561+ 1566                         1645.3700     1039.9888    87792   36.79%
*  3561+ 1044                         1644.1800     1039.9888    88486   36.75%
   3561  1045      868.9035   221     1644.1800     1039.9888    88882   36.75%
   4293  1068     1601.1839    45     1644.1800     1039.9888   115663   36.75%
   5632  1377     1634.2573    17     1644.1800     1090.9038   157693   33.65%
   7231  2248     1425.7912    40     1644.1800     1135.3259   199740   30.95%
   8796  3103     1314.1974    69     1644.1800     1177.4834   240040   28.38%
  10469  4009     1511.2263    31     1644.1800     1214.8328   281733   26.11%
  16669  7081     1606.9483    17     1644.1800     1268.3052   430999   22.86%
Elapsed time = 5.08 sec. (3638.73 ticks, tree = 3.43 MB, solutions = 9)
  22054  9231     1334.9653    68     1644.1800     1285.0500   571949   21.84%
* 27194 11155      integral     0     1644.0500     1298.0363   704062   21.05%
  32493 12818     1594.9200    17     1644.0500     1308.9874   843563   20.38%
  37997 14390     1587.6071    29     1644.0500     1321.9936   988626   19.59%
  43651 15849     1624.2369    19     1644.0500     1333.7938  1136474   18.87%
  49394 17359     1556.4875    27     1644.0500     1351.2033  1284711   17.81%
  55111 18588     1518.2558    22     1644.0500     1365.3474  1428885   16.95%
  60825 19601     1486.4443    47     1644.0500     1380.7944  1569983   16.01%
  66478 20547     1498.9357    42     1644.0500     1394.9272  1716505   15.15%
  72290 21237     1407.7772    42     1644.0500     1407.2109  1863282   14.41%
Elapsed time = 19.28 sec. (13128.87 ticks, tree = 13.83 MB, solutions = 10)
  78400 21552     1604.6255    11     1644.0500     1418.7847  2014909   13.70%
  84914 21562        cutoff           1644.0500     1433.0966  2169356   12.83%
  91763 21154     1617.0677    25     1644.0500     1446.2209  2331849   12.03%
  99186 20630     1641.8263    18     1644.0500     1460.0471  2498410   11.19%
 106553 19736     1537.6294    40     1644.0500     1477.2842  2665081   10.14%
 114380 18395     1607.0978    26     1644.0500     1497.7956  2832800    8.90%
 122489 16418     1628.2127    22     1644.0500     1519.8250  2992712    7.56%
 131688 13689     1639.9191    20     1644.0500     1552.3112  3139484    5.58%
 143346  8858     1618.2634    31     1644.0500     1598.0800  3277762    2.80%

GUB cover cuts applied:  29
Clique cuts applied:  57
Cover cuts applied:  454
Implied bound cuts applied:  13
Flow cuts applied:  33
Mixed integer rounding cuts applied:  112
Zero-half cuts applied:  52
Lift and project cuts applied:  16
Gomory fractional cuts applied:  17

Root node processing (before b&c):
  Real time             =    0.29 sec. (176.84 ticks)
Parallel b&c, 8 threads:
  Real time             =   32.43 sec. (22012.40 ticks)
  Sync time (average)   =    1.02 sec.
  Wait time (average)   =    0.00 sec.
                          ------------
Total (root+branch&cut) =   32.72 sec. (22189.24 ticks)

Solution pool: 10 solutions saved.

MIP - Integer optimal, tolerance (0.0001/1e-06):  Objective =  1.6440500000e+03
Current MIP best bound =  1.6438900000e+03 (gap = 0.16, 0.01%)
Solution time =   32.72 sec.  Iterations = 3322012  Nodes = 154739 (14)
Deterministic time = 22189.24 ticks  (678.14 ticks/sec)

CPLEX> Incumbent solution
Variable Name           Solution Value
overlay#1#4                  32.000000
overlay#2#12                 14.000000
overlay#3#7                  56.000000
overlay#3#12                  1.000000
overlay#4#13                 19.000000
overlay#4#19                 59.000000
overlay#5#13                 66.000000
overlay#6#4                  34.000000
overlay#6#5                  66.000000
overlay#7#10                 56.000000
overlay#8#4                  12.000000
overlay#9#6                  52.000000
overlay#10#9                 52.000000
overlay#10#16                11.000000
overlay#10#17                12.000000
overlay#11#15                10.000000
overlay#11#16                23.000000
overlay#12#10                19.000000
overlay#12#11                33.000000
overlay#12#21                36.000000
overlay#13#14                30.000000
overlay#13#18                52.000000
overlay#13#22                 3.000000
overlay#14#2                 14.000000
overlay#14#3                  2.000000
overlay#14#20                73.000000
overlay#15#1                 32.000000
overlay#15#6                  1.000000
overlay#15#8                 12.000000
overlay#16#6                 34.000000
overlay#17#6                 12.000000
overlay#18#3                 52.000000
overlay#19#14                59.000000
overlay#20#12                73.000000
overlay#21#15                36.000000
overlay#22#3                  3.000000
before#6#1                    1.000000
before#8#1                    1.000000
before#3#2                    1.000000
before#20#2                   1.000000
before#3#20                   1.000000
before#5#4                    1.000000
before#6#8                    1.000000
before#7#12                   1.000000
before#9#15                   1.000000
before#9#16                   1.000000
before#9#17                   1.000000
before#10#11                  1.000000
before#10#21                  1.000000
before#11#21                  1.000000
before#13#19                  1.000000
before#18#14                  1.000000
before#22#14                  1.000000
before#16#15                  1.000000
before#17#15                  1.000000
before#17#16                  1.000000
before#18#22                  1.000000
y#3#7                         1.000000
y#3#12                        1.000000
y#3#14                        1.000000
y#3#18                        1.000000
y#3#22                        1.000000
y#4#1                         1.000000
y#4#8                         1.000000
y#4#19                        1.000000
y#5#1                         1.000000
y#5#6                         1.000000
y#5#8                         1.000000
y#5#13                        1.000000
y#5#19                        1.000000
y#6#4                         1.000000
y#6#5                         1.000000
y#7#2                         1.000000
y#7#3                         1.000000
y#7#10                        1.000000
y#7#11                        1.000000
y#7#20                        1.000000
y#7#21                        1.000000
y#9#10                        1.000000
y#9#11                        1.000000
y#9#21                        1.000000
y#10#7                        1.000000
y#10#9                        1.000000
y#10#12                       1.000000
y#10#15                       1.000000
y#10#16                       1.000000
y#10#17                       1.000000
y#11#15                       1.000000
y#12#2                        1.000000
y#12#11                       1.000000
y#12#20                       1.000000
y#12#21                       1.000000
y#13#4                        1.000000
y#13#5                        1.000000
y#13#14                       1.000000
y#13#18                       1.000000
y#13#22                       1.000000
y#14#2                        1.000000
y#14#19                       1.000000
y#14#20                       1.000000
y#15#21                       1.000000
y#16#11                       1.000000
y#16#21                       1.000000
y#17#11                       1.000000
y#17#21                       1.000000
y#18#2                        1.000000
y#18#3                        1.000000
y#18#13                       1.000000
y#18#19                       1.000000
y#18#20                       1.000000
y#22#2                        1.000000
y#22#19                       1.000000
y#22#20                       1.000000
y#9#1                         1.000000
y#9#8                         1.000000
y#15#1                        1.000000
y#15#8                        1.000000
y#16#1                        1.000000
y#16#8                        1.000000
y#17#1                        1.000000
y#17#8                        1.000000
y#6#9                         1.000000
y#6#15                        1.000000
y#6#16                        1.000000
y#6#17                        1.000000
z#1#4                         1.000000
z#1#5                         1.000000
z#2#7                         1.000000
z#2#12                        1.000000
z#2#14                        1.000000
z#2#18                        1.000000
z#2#22                        1.000000
z#3#7                         1.000000
z#3#18                        1.000000
z#3#22                        1.000000
z#4#1                         1.000000
z#4#6                         1.000000
z#4#8                         1.000000
z#4#13                        1.000000
z#4#19                        1.000000
z#6#5                         1.000000
z#8#5                         1.000000
z#10#7                        1.000000
z#10#9                        1.000000
z#10#17                       1.000000
z#11#7                        1.000000
z#11#9                        1.000000
z#11#16                       1.000000
z#11#17                       1.000000
z#12#2                        1.000000
z#12#3                        1.000000
z#12#10                       1.000000
z#12#11                       1.000000
z#12#20                       1.000000
z#12#21                       1.000000
z#13#5                        1.000000
z#13#18                       1.000000
z#13#22                       1.000000
z#14#2                        1.000000
z#14#3                        1.000000
z#14#13                       1.000000
z#14#19                       1.000000
z#14#20                       1.000000
z#15#10                       1.000000
z#15#11                       1.000000
z#15#21                       1.000000
z#16#10                       1.000000
z#19#4                        1.000000
z#19#5                        1.000000
z#19#14                       1.000000
z#19#18                       1.000000
z#19#22                       1.000000
z#20#7                        1.000000
z#20#18                       1.000000
z#20#22                       1.000000
z#21#7                        1.000000
z#21#9                        1.000000
z#21#12                       1.000000
z#21#15                       1.000000
z#21#16                       1.000000
z#21#17                       1.000000
z#15#1                        1.000000
z#15#6                        1.000000
z#15#8                        1.000000
z#1#9                         1.000000
z#1#16                        1.000000
z#1#17                        1.000000
z#6#9                         1.000000
z#6#16                        1.000000
z#6#17                        1.000000
z#8#9                         1.000000
z#8#16                        1.000000
z#8#17                        1.000000
All other variables matching '*' are 0.
CPLEX> 